154 164 163 167 166 165 201 200 199 198 202 204 203 208 207 206 205 209 210 211 212 213 214 215 216 217 223 224 222 221 220 218 219 193 194 195 196 197 184 185 183 182 179 181 180 169 171 170 168 162 160 161 113 112 111 110 109 108 172 175 174 173 107 542 541 543 544 545 546 547 103 104 105 106 117 123 122 121 120 118 119 73 74 75 76 77 88 89 94 97 95 96 98 99 100 102 101 551 550 559 560 561 562 563 565 566 564 549 548 478 477 479 480 483 484 485 486 487 534 535 536 537 539 538 540 176 177 178 187 188 186 227 189 190 192 191 226 225 228 229 230 231 233 232 234 235 236 237 240 239 238 246 247 245 244 243 242 241 248 249 250 251 252 254 253 255 256 257 300 301 302 508 507 506 509 510 511 513 512 527 528 529 530 531 532 533 488 489 490 491 492 493 482 481 476 475 567 568 20 15 16 17 18 19 569 570 474 473 472 471 495 494 524 525 526 523 521 522 514 515 516 517 520 518 519 497 496 470 469 468 467 466 465 464 463 462 461 452 453 499 500 501 498 502 503 504 505 308 309 310 311 451 450 441 440 439 443 444 445 442 449 448 446 447 381 380 379 378 377 376 375 374 315 314 316 312 313 305 307 303 304 306 318 317 319 320 321 297 298 299 258 259 260 261 262 263 264 265 266 267 271 272 269 268 270 296 295 294 293 291 292 273 274 275 290 289 288 276 277 278 279 282 281 280 287 286 285 284 283 334 335 336 337 338 339 333 332 331 330 340 341 344 343 342 366 329 328 327 326 325 324 323 322 373 372 371 396 395 394 393 391 392 390 389 388 387 386 385 383 384 409 408 407 406 405 404 403 402 401 400 399 397 398 370 369 368 367 365 364 345 346 362 363 361 360 359 358 348 347 349 350 351 352 353 354 355 357 356 412 411 410 418 417 413 414 415 416 419 420 421 422 423 424 425 382 426 427 428 429 431 430 432 433 434 435 436 437 438 454 455 456 457 458 459 460 571 572 573 0 1 2 3 4 5 6 7 8 9 10 11 14 13 12 23 22 21 24 25 26 27 28 29 31 30 32 36 37 38 35 33 34 558 557 552 553 554 555 556 41 40 39 42 43 48 47 44 45 46 91 92 93 90 87 86 85 84 51 52 50 49 54 53 55 56 83 82 57 58 81 59 60 61 63 79 80 78 62 64 67 66 65 72 71 70 68 69 124 125 126 127 128 116 115 114 131 132 130 129 138 137 133 134 135 136 139 140 141 151 150 149 152 148 147 142 143 144 146 145 158 157 153 156 159 155